
Gurobi 11.0.1 (linux64, gurobi_cl) logging started Wed Jul 17 21:37:27 2024

Set parameter WLSAccessID
Set parameter WLSSecret
Set parameter LicenseID to value 2416028
Set parameter LogFile to value "gurobi.log"
Using license file /home/zhangh5/gurobi.lic
Academic license 2416028 - for non-commercial use only - registered to zh___@mskcc.org

Gurobi 11.0.1 (linux64, gurobi_cl) logging started Wed Jul 17 21:41:41 2024

Set parameter WLSAccessID
Set parameter WLSSecret
Set parameter LicenseID to value 2416028
Set parameter LogFile to value "gurobi.log"
Using license file /home/zhangh5/gurobi.lic
Academic license 2416028 - for non-commercial use only - registered to zh___@mskcc.org
